# i means: Type of food in order [Pasta, Nuts, Meat, Vegetable]
set I := i1, i2, i3, i4;

# j means: Food content [calories, sugar, fats, protein]
set J := j1, j2, j3, j4;

param food_content_min :=
j1 1000
j2 1.5
j3 2.5
j4 2;

param cost :=
i1 0.25
i2 0.75
i3 0.50
i4 0.20;

param value_table:
    j1  j2 j3 j4:=
i1  100  0.04  0.18  0.04
i2  200  0.05  0.36  0.14
i3  110  0.00  0.11  0.25
i4  25   0.03  0.02  0.04;

param total_cost;
